<?xml version = "1.0" encoding="UTF-8" standalone="yes"?>
<CPLEXSolution version="1.2">
 <header
   problemName="IloCplex"
   solutionName="p0"
   solutionIndex="-1"
   objectiveValue="-20215239"
   solutionTypeValue="3"
   solutionTypeString="primal"
   solutionStatusValue="127"
   solutionStatusString="integer feasible solution"
   solutionMethodString="mip"
   primalFeasible="0"
   dualFeasible="0"
   writeLevel="3"/>
 <quality
   epInt="1.0000000000000001e-05"
   epRHS="9.9999999999999995e-07"
   maxIntInfeas="0"
   maxPrimalInfeas="0"
   maxX="1"
   maxSlack="1"/>
 <variables>
  <variable name="w0_2" index="2" value="1"/>
  <variable name="w0_3" index="3" value="1"/>
  <variable name="w0_4" index="4" value="1"/>
  <variable name="w0_5" index="5" value="1"/>
  <variable name="w0_10" index="10" value="1"/>
  <variable name="w0_13" index="13" value="1"/>
  <variable name="w2_2" index="30" value="1"/>
  <variable name="w2_3" index="31" value="1"/>
  <variable name="w2_4" index="32" value="1"/>
  <variable name="w2_5" index="33" value="1"/>
  <variable name="w2_10" index="38" value="1"/>
  <variable name="w2_13" index="41" value="1"/>
  <variable name="w3_2" index="44" value="1"/>
  <variable name="w3_3" index="45" value="1"/>
  <variable name="w3_4" index="46" value="1"/>
  <variable name="w3_5" index="47" value="1"/>
  <variable name="w3_10" index="52" value="1"/>
  <variable name="w3_13" index="55" value="1"/>
  <variable name="w4_2" index="58" value="1"/>
  <variable name="w4_3" index="59" value="1"/>
  <variable name="w4_4" index="60" value="1"/>
  <variable name="w4_5" index="61" value="1"/>
  <variable name="w4_10" index="66" value="1"/>
  <variable name="w4_13" index="69" value="1"/>
  <variable name="w6_2" index="86" value="1"/>
  <variable name="w6_3" index="87" value="1"/>
  <variable name="w6_4" index="88" value="1"/>
  <variable name="w6_5" index="89" value="1"/>
  <variable name="w6_10" index="94" value="1"/>
  <variable name="w6_13" index="97" value="1"/>
  <variable name="w7_2" index="100" value="1"/>
  <variable name="w7_3" index="101" value="1"/>
  <variable name="w7_4" index="102" value="1"/>
  <variable name="w7_5" index="103" value="1"/>
  <variable name="w7_10" index="108" value="1"/>
  <variable name="w7_13" index="111" value="1"/>
  <variable name="w8_2" index="114" value="1"/>
  <variable name="w8_3" index="115" value="1"/>
  <variable name="w8_4" index="116" value="1"/>
  <variable name="w8_5" index="117" value="1"/>
  <variable name="w8_10" index="122" value="1"/>
  <variable name="w8_13" index="125" value="1"/>
  <variable name="k0" index="196" value="1"/>
  <variable name="k2" index="198" value="1"/>
  <variable name="k3" index="199" value="1"/>
  <variable name="k4" index="200" value="1"/>
  <variable name="k6" index="202" value="1"/>
  <variable name="k7" index="203" value="1"/>
  <variable name="k8" index="204" value="1"/>
  <variable name="u2" index="212" value="1"/>
  <variable name="u3" index="213" value="1"/>
  <variable name="u4" index="214" value="1"/>
  <variable name="u5" index="215" value="1"/>
  <variable name="u10" index="220" value="1"/>
  <variable name="u13" index="223" value="1"/>
  <variable name="x0_30" index="254" value="1"/>
  <variable name="x1_69" index="493" value="1"/>
  <variable name="x2_195" index="819" value="1"/>
  <variable name="x3_40" index="864" value="1"/>
  <variable name="x4_172" index="1196" value="1"/>
  <variable name="x5_175" index="1399" value="1"/>
  <variable name="x6_193" index="1617" value="1"/>
  <variable name="x7_107" index="1731" value="1"/>
  <variable name="x8_61" index="1885" value="1"/>
  <variable name="x9_179" index="2203" value="1"/>
  <variable name="x10_23" index="2247" value="1"/>
  <variable name="x11_29" index="2453" value="1"/>
  <variable name="x12_161" index="2785" value="1"/>
  <variable name="x13_6" index="2830" value="1"/>
  <variable name="x14_177" index="3201" value="1"/>
  <variable name="x15_72" index="3296" value="1"/>
  <variable name="x16_10" index="3434" value="1"/>
  <variable name="x17_143" index="3767" value="1"/>
  <variable name="x18_140" index="3964" value="1"/>
  <variable name="x19_89" index="4113" value="1"/>
  <variable name="x20_191" index="4415" value="1"/>
  <variable name="x21_176" index="4600" value="1"/>
  <variable name="x22_39" index="4663" value="1"/>
  <variable name="x23_188" index="5012" value="1"/>
  <variable name="x24_71" index="5095" value="1"/>
  <variable name="x25_28" index="5252" value="1"/>
  <variable name="x26_125" index="5549" value="1"/>
  <variable name="x27_102" index="5726" value="1"/>
  <variable name="x28_81" index="5905" value="1"/>
  <variable name="x29_116" index="6140" value="1"/>
  <variable name="x30_113" index="6337" value="1"/>
  <variable name="x31_1" index="6425" value="1"/>
  <variable name="x32_131" index="6755" value="1"/>
  <variable name="x33_42" index="6866" value="1"/>
  <variable name="x34_192" index="7216" value="1"/>
  <variable name="x35_151" index="7375" value="1"/>
  <variable name="x36_150" index="7574" value="1"/>
  <variable name="x37_82" index="7706" value="1"/>
  <variable name="x38_164" index="7988" value="1"/>
  <variable name="x39_142" index="8166" value="1"/>
  <variable name="x40_38" index="8262" value="1"/>
  <variable name="x41_144" index="8568" value="1"/>
  <variable name="x42_34" index="8658" value="1"/>
  <variable name="x43_26" index="8850" value="1"/>
  <variable name="x44_13" index="9037" value="1"/>
  <variable name="x45_62" index="9286" value="1"/>
  <variable name="x46_162" index="9586" value="1"/>
  <variable name="x47_22" index="9646" value="1"/>
  <variable name="x48_94" index="9918" value="1"/>
  <variable name="x49_118" index="10142" value="1"/>
  <variable name="x50_64" index="10288" value="1"/>
  <variable name="x51_184" index="10608" value="1"/>
  <variable name="x52_173" index="10797" value="1"/>
  <variable name="x53_12" index="10836" value="1"/>
  <variable name="x54_190" index="11214" value="1"/>
  <variable name="x55_108" index="11332" value="1"/>
  <variable name="x56_96" index="11520" value="1"/>
  <variable name="x57_58" index="11682" value="1"/>
  <variable name="x58_111" index="11935" value="1"/>
  <variable name="x59_156" index="12180" value="1"/>
  <variable name="x60_145" index="12369" value="1"/>
  <variable name="x61_19" index="12443" value="1"/>
  <variable name="x62_56" index="12680" value="1"/>
  <variable name="x63_78" index="12902" value="1"/>
  <variable name="x64_114" index="13138" value="1"/>
  <variable name="x65_194" index="13418" value="1"/>
  <variable name="x66_53" index="13477" value="1"/>
  <variable name="x67_169" index="13793" value="1"/>
  <variable name="x68_18" index="13842" value="1"/>
  <variable name="x69_54" index="14078" value="1"/>
  <variable name="x70_166" index="14390" value="1"/>
  <variable name="x71_88" index="14512" value="1"/>
  <variable name="x72_126" index="14750" value="1"/>
  <variable name="x73_153" index="14977" value="1"/>
  <variable name="x74_8" index="15032" value="1"/>
  <variable name="x75_129" index="15353" value="1"/>
  <variable name="x76_163" index="15587" value="1"/>
  <variable name="x77_198" index="15822" value="1"/>
  <variable name="x78_66" index="15890" value="1"/>
  <variable name="x79_76" index="16100" value="1"/>
  <variable name="x80_137" index="16361" value="1"/>
  <variable name="x81_152" index="16576" value="1"/>
  <variable name="x82_109" index="16733" value="1"/>
  <variable name="x83_24" index="16848" value="1"/>
  <variable name="x84_138" index="17162" value="1"/>
  <variable name="x85_44" index="17268" value="1"/>
  <variable name="x86_182" index="17606" value="1"/>
  <variable name="x87_104" index="17728" value="1"/>
  <variable name="x88_33" index="17857" value="1"/>
  <variable name="x89_37" index="18061" value="1"/>
  <variable name="x90_186" index="18410" value="1"/>
  <variable name="x91_17" index="18441" value="1"/>
  <variable name="x92_171" index="18795" value="1"/>
  <variable name="x93_148" index="18972" value="1"/>
  <variable name="x94_167" index="19191" value="1"/>
  <variable name="x95_110" index="19334" value="1"/>
  <variable name="x96_67" index="19491" value="1"/>
  <variable name="x97_31" index="19655" value="1"/>
  <variable name="x98_170" index="19994" value="1"/>
  <variable name="x99_74" index="20098" value="1"/>
  <variable name="x100_154" index="20378" value="1"/>
  <variable name="x101_168" index="20592" value="1"/>
  <variable name="x102_124" index="20748" value="1"/>
  <variable name="x103_187" index="21011" value="1"/>
  <variable name="x104_49" index="21073" value="1"/>
  <variable name="x105_146" index="21370" value="1"/>
  <variable name="x106_75" index="21499" value="1"/>
  <variable name="x107_3" index="21627" value="1"/>
  <variable name="x108_112" index="21936" value="1"/>
  <variable name="x109_117" index="22141" value="1"/>
  <variable name="x110_80" index="22304" value="1"/>
  <variable name="x111_92" index="22516" value="1"/>
  <variable name="x112_121" index="22745" value="1"/>
  <variable name="x113_98" index="22922" value="1"/>
  <variable name="x114_189" index="23213" value="1"/>
  <variable name="x115_120" index="23344" value="1"/>
  <variable name="x116_21" index="23445" value="1"/>
  <variable name="x117_178" index="23802" value="1"/>
  <variable name="x118_55" index="23879" value="1"/>
  <variable name="x119_5" index="24029" value="1"/>
  <variable name="x120_84" index="24308" value="1"/>
  <variable name="x121_165" index="24589" value="1"/>
  <variable name="x122_77" index="24701" value="1"/>
  <variable name="x123_115" index="24939" value="1"/>
  <variable name="x124_130" index="25154" value="1"/>
  <variable name="x125_174" index="25398" value="1"/>
  <variable name="x126_27" index="25451" value="1"/>
  <variable name="x127_103" index="25727" value="1"/>
  <variable name="x128_65" index="25889" value="1"/>
  <variable name="x129_68" index="26092" value="1"/>
  <variable name="x130_91" index="26315" value="1"/>
  <variable name="x131_43" index="26467" value="1"/>
  <variable name="x132_158" index="26782" value="1"/>
  <variable name="x133_134" index="26958" value="1"/>
  <variable name="x134_119" index="27143" value="1"/>
  <variable name="x135_90" index="27314" value="1"/>
  <variable name="x136_160" index="27584" value="1"/>
  <variable name="x137_155" index="27779" value="1"/>
  <variable name="x138_93" index="27917" value="1"/>
  <variable name="x139_196" index="28220" value="1"/>
  <variable name="x140_86" index="28310" value="1"/>
  <variable name="x141_9" index="28433" value="1"/>
  <variable name="x142_197" index="28821" value="1"/>
  <variable name="x143_135" index="28959" value="1"/>
  <variable name="x144_25" index="29049" value="1"/>
  <variable name="x145_123" index="29347" value="1"/>
  <variable name="x146_141" index="29565" value="1"/>
  <variable name="x147_45" index="29669" value="1"/>
  <variable name="x148_36" index="29860" value="1"/>
  <variable name="x149_87" index="30111" value="1"/>
  <variable name="x150_73" index="30297" value="1"/>
  <variable name="x151_52" index="30476" value="1"/>
  <variable name="x152_70" index="30694" value="1"/>
  <variable name="x153_14" index="30838" value="1"/>
  <variable name="x154_57" index="31081" value="1"/>
  <variable name="x155_7" index="31231" value="1"/>
  <variable name="x156_101" index="31525" value="1"/>
  <variable name="x157_100" index="31724" value="1"/>
  <variable name="x158_180" index="32004" value="1"/>
  <variable name="x159_4" index="32028" value="1"/>
  <variable name="x160_159" index="32383" value="1"/>
  <variable name="x161_60" index="32484" value="1"/>
  <variable name="x162_15" index="32639" value="1"/>
  <variable name="x163_11" index="32835" value="1"/>
  <variable name="x164_133" index="33157" value="1"/>
  <variable name="x165_97" index="33321" value="1"/>
  <variable name="x166_157" index="33581" value="1"/>
  <variable name="x167_83" index="33707" value="1"/>
  <variable name="x168_147" index="33971" value="1"/>
  <variable name="x169_105" index="34129" value="1"/>
  <variable name="x170_20" index="34244" value="1"/>
  <variable name="x171_128" index="34552" value="1"/>
  <variable name="x172_99" index="34723" value="1"/>
  <variable name="x173_48" index="34872" value="1"/>
  <variable name="x174_35" index="35059" value="1"/>
  <variable name="x175_136" index="35360" value="1"/>
  <variable name="x176_181" index="35605" value="1"/>
  <variable name="x177_127" index="35751" value="1"/>
  <variable name="x178_41" index="35865" value="1"/>
  <variable name="x179_0" index="36024" value="1"/>
  <variable name="x180_79" index="36303" value="1"/>
  <variable name="x181_59" index="36483" value="1"/>
  <variable name="x182_132" index="36756" value="1"/>
  <variable name="x183_95" index="36919" value="1"/>
  <variable name="x184_51" index="37075" value="1"/>
  <variable name="x185_139" index="37363" value="1"/>
  <variable name="x186_199" index="37623" value="1"/>
  <variable name="x187_122" index="37746" value="1"/>
  <variable name="x188_183" index="38007" value="1"/>
  <variable name="x189_47" index="38071" value="1"/>
  <variable name="x190_32" index="38256" value="1"/>
  <variable name="x191_2" index="38426" value="1"/>
  <variable name="x192_46" index="38670" value="1"/>
  <variable name="x193_106" index="38930" value="1"/>
  <variable name="x194_185" index="39209" value="1"/>
  <variable name="x195_85" index="39309" value="1"/>
  <variable name="x196_63" index="39487" value="1"/>
  <variable name="x197_149" index="39773" value="1"/>
  <variable name="x198_50" index="39874" value="1"/>
  <variable name="x199_16" index="40040" value="1"/>
 </variables>
</CPLEXSolution>
